(declare-sort Loc 0)
(declare-const l0 Loc)
(declare-const l2 Loc)
(declare-const l3 Loc)
(declare-const l4 Loc)
(declare-const l5 Loc)
(declare-const l6 Loc)
(declare-const l7 Loc)
(declare-const l8 Loc)
(declare-const l9 Loc)
(declare-const l1 Loc)
(declare-const l10 Loc)
(declare-const l11 Loc)
(declare-const l13 Loc)
(declare-const l14 Loc)
(declare-const l12 Loc)
(declare-const l16 Loc)
(declare-const l17 Loc)
(declare-const l15 Loc)
(declare-const l18 Loc)
(declare-const l19 Loc)
(declare-const l20 Loc)
(declare-const l21 Loc)
(assert (distinct l0 l2 l3 l4 l5 l6 l7 l8 l9 l1 l10 l11 l13 l14 l12 l16 l17 l15 l18 l19 l20 l21))

(define-fun cfg_init ( (pc Loc) (src Loc) (rel Bool) ) Bool
  (and (= pc src) rel))

(define-fun cfg_trans2 ( (pc Loc) (src Loc)
                         (pc1 Loc) (dst Loc)
                         (rel Bool) ) Bool
  (and (= pc src) (= pc1 dst) rel))

(define-fun cfg_trans3 ( (pc Loc) (exit Loc)
                         (pc1 Loc) (call Loc)
                         (pc2 Loc) (return Loc)
                         (rel Bool) ) Bool
  (and (= pc exit) (= pc1 call) (= pc2 return) rel))

(define-fun init_main ( (pc^0 Loc) (Result_6^0 Int) (___cil_tmp6_12^0 Int) (___patmp1^0 Int) (___patmp2^0 Int) (a_128^0 Int) (a_243^0 Int) (c_15^0 Int) (cnt_133^0 Int) (cnt_139^0 Int) (cnt_269^0 Int) (cnt_276^0 Int) (elem_16^0 Int) (head_9^0 Int) (i_8^0 Int) (k_296^0 Int) (len_246^0 Int) (len_48^0 Int) (length_7^0 Int) (lt_18^0 Int) (lt_19^0 Int) (lt_20^0 Int) (lt_21^0 Int) (prev_17^0 Int) (tmp_10^0 Int) (tmp___0_11^0 Int) (x_13^0 Int) (x_23^0 Int) (y_110^0 Int) (y_14^0 Int) (y_158^0 Int) (y_259^0 Int) (y_309^0 Int) (y_80^0 Int) ) Bool
  (cfg_init pc^0 l21 true))

(define-fun next_main (
                 (pc^0 Loc) (Result_6^0 Int) (___cil_tmp6_12^0 Int) (___patmp1^0 Int) (___patmp2^0 Int) (a_128^0 Int) (a_243^0 Int) (c_15^0 Int) (cnt_133^0 Int) (cnt_139^0 Int) (cnt_269^0 Int) (cnt_276^0 Int) (elem_16^0 Int) (head_9^0 Int) (i_8^0 Int) (k_296^0 Int) (len_246^0 Int) (len_48^0 Int) (length_7^0 Int) (lt_18^0 Int) (lt_19^0 Int) (lt_20^0 Int) (lt_21^0 Int) (prev_17^0 Int) (tmp_10^0 Int) (tmp___0_11^0 Int) (x_13^0 Int) (x_23^0 Int) (y_110^0 Int) (y_14^0 Int) (y_158^0 Int) (y_259^0 Int) (y_309^0 Int) (y_80^0 Int)
                 (pc^post Loc) (Result_6^post Int) (___cil_tmp6_12^post Int) (___patmp1^post Int) (___patmp2^post Int) (a_128^post Int) (a_243^post Int) (c_15^post Int) (cnt_133^post Int) (cnt_139^post Int) (cnt_269^post Int) (cnt_276^post Int) (elem_16^post Int) (head_9^post Int) (i_8^post Int) (k_296^post Int) (len_246^post Int) (len_48^post Int) (length_7^post Int) (lt_18^post Int) (lt_19^post Int) (lt_20^post Int) (lt_21^post Int) (prev_17^post Int) (tmp_10^post Int) (tmp___0_11^post Int) (x_13^post Int) (x_23^post Int) (y_110^post Int) (y_14^post Int) (y_158^post Int) (y_259^post Int) (y_309^post Int) (y_80^post Int)
             ) Bool
  (or
    (cfg_trans2 pc^0 l0 pc^post l2 (exists ( (x_13^1 Int) ) (and (and (and (and (and (and (and (and (and (and (and (and (and (and (and (and (and (and (and (and (and (and (and (and (and (and (and (and (and (and (and (and (and (and (and (and (and (and (<= 0 (+ 0 len_48^0)) (<= (+ (+ 0 (* -1 i_8^0)) length_7^0) 0)) (= ___cil_tmp6_12^post (+ 0 head_9^0))) (= Result_6^post (+ 0 ___cil_tmp6_12^post))) (<= 0 (+ 0 len_48^0))) (<= 0 (+ 0 len_48^0))) (= x_13^1 (+ 0 Result_6^post))) (= c_15^post (+ 0 x_13^1))) (= x_13^post 0)) (<= 0 (+ 0 len_48^0))) (= ___patmp1^0 ___patmp1^post)) (= ___patmp2^0 ___patmp2^post)) (= a_128^0 a_128^post)) (= a_243^0 a_243^post)) (= cnt_133^0 cnt_133^post)) (= cnt_139^0 cnt_139^post)) (= cnt_269^0 cnt_269^post)) (= cnt_276^0 cnt_276^post)) (= elem_16^0 elem_16^post)) (= head_9^0 head_9^post)) (= i_8^0 i_8^post)) (= k_296^0 k_296^post)) (= len_246^0 len_246^post)) (= len_48^0 len_48^post)) (= length_7^0 length_7^post)) (= lt_18^0 lt_18^post)) (= lt_19^0 lt_19^post)) (= lt_20^0 lt_20^post)) (= lt_21^0 lt_21^post)) (= prev_17^0 prev_17^post)) (= tmp_10^0 tmp_10^post)) (= tmp___0_11^0 tmp___0_11^post)) (= x_23^0 x_23^post)) (= y_110^0 y_110^post)) (= y_14^0 y_14^post)) (= y_158^0 y_158^post)) (= y_259^0 y_259^post)) (= y_309^0 y_309^post)) (= y_80^0 y_80^post))))
    (cfg_trans2 pc^0 l2 pc^post l3 (and (and (and (and (and (and (and (and (and (and (and (and (and (and (and (and (and (and (and (and (and (and (and (and (and (and (and (and (and (and (and (and (and (<= (+ 1 c_15^0) 0) (= Result_6^0 Result_6^post)) (= ___cil_tmp6_12^0 ___cil_tmp6_12^post)) (= ___patmp1^0 ___patmp1^post)) (= ___patmp2^0 ___patmp2^post)) (= a_128^0 a_128^post)) (= a_243^0 a_243^post)) (= c_15^0 c_15^post)) (= cnt_133^0 cnt_133^post)) (= cnt_139^0 cnt_139^post)) (= cnt_269^0 cnt_269^post)) (= cnt_276^0 cnt_276^post)) (= elem_16^0 elem_16^post)) (= head_9^0 head_9^post)) (= i_8^0 i_8^post)) (= k_296^0 k_296^post)) (= len_246^0 len_246^post)) (= len_48^0 len_48^post)) (= length_7^0 length_7^post)) (= lt_18^0 lt_18^post)) (= lt_19^0 lt_19^post)) (= lt_20^0 lt_20^post)) (= lt_21^0 lt_21^post)) (= prev_17^0 prev_17^post)) (= tmp_10^0 tmp_10^post)) (= tmp___0_11^0 tmp___0_11^post)) (= x_13^0 x_13^post)) (= x_23^0 x_23^post)) (= y_110^0 y_110^post)) (= y_14^0 y_14^post)) (= y_158^0 y_158^post)) (= y_259^0 y_259^post)) (= y_309^0 y_309^post)) (= y_80^0 y_80^post)))
    (cfg_trans2 pc^0 l2 pc^post l3 (and (and (and (and (and (and (and (and (and (and (and (and (and (and (and (and (and (and (and (and (and (and (and (and (and (and (and (and (and (and (and (and (and (<= 1 (+ 0 c_15^0)) (= Result_6^0 Result_6^post)) (= ___cil_tmp6_12^0 ___cil_tmp6_12^post)) (= ___patmp1^0 ___patmp1^post)) (= ___patmp2^0 ___patmp2^post)) (= a_128^0 a_128^post)) (= a_243^0 a_243^post)) (= c_15^0 c_15^post)) (= cnt_133^0 cnt_133^post)) (= cnt_139^0 cnt_139^post)) (= cnt_269^0 cnt_269^post)) (= cnt_276^0 cnt_276^post)) (= elem_16^0 elem_16^post)) (= head_9^0 head_9^post)) (= i_8^0 i_8^post)) (= k_296^0 k_296^post)) (= len_246^0 len_246^post)) (= len_48^0 len_48^post)) (= length_7^0 length_7^post)) (= lt_18^0 lt_18^post)) (= lt_19^0 lt_19^post)) (= lt_20^0 lt_20^post)) (= lt_21^0 lt_21^post)) (= prev_17^0 prev_17^post)) (= tmp_10^0 tmp_10^post)) (= tmp___0_11^0 tmp___0_11^post)) (= x_13^0 x_13^post)) (= x_23^0 x_23^post)) (= y_110^0 y_110^post)) (= y_14^0 y_14^post)) (= y_158^0 y_158^post)) (= y_259^0 y_259^post)) (= y_309^0 y_309^post)) (= y_80^0 y_80^post)))
    (cfg_trans2 pc^0 l3 pc^post l4 (exists ( (lt_21^1 Int) ) (and (and (and (and (and (and (and (and (and (and (and (and (and (and (and (and (and (and (and (and (and (and (and (and (and (and (and (and (and (and (and (and (and (and (and (and (and (and (and (= y_14^post (+ 0 c_15^0)) (= lt_21^1 (+ 0 y_80^0))) (= c_15^post (+ 0 lt_21^1))) (= lt_21^post lt_21^post)) (= elem_16^post (+ 0 x_13^0))) (= prev_17^post 0)) (<= 0 (+ -1 len_48^0))) (<= (+ 0 elem_16^post) 0)) (<= 0 (+ 0 elem_16^post))) (<= (+ 0 prev_17^post) 0)) (<= 0 (+ 0 prev_17^post))) (= x_13^post (+ 0 y_14^post))) (<= 0 (+ -1 len_48^0))) (= a_128^post (+ -2 len_48^0))) (= Result_6^0 Result_6^post)) (= ___cil_tmp6_12^0 ___cil_tmp6_12^post)) (= ___patmp1^0 ___patmp1^post)) (= ___patmp2^0 ___patmp2^post)) (= a_243^0 a_243^post)) (= cnt_133^0 cnt_133^post)) (= cnt_139^0 cnt_139^post)) (= cnt_269^0 cnt_269^post)) (= cnt_276^0 cnt_276^post)) (= head_9^0 head_9^post)) (= i_8^0 i_8^post)) (= k_296^0 k_296^post)) (= len_246^0 len_246^post)) (= len_48^0 len_48^post)) (= length_7^0 length_7^post)) (= lt_18^0 lt_18^post)) (= lt_19^0 lt_19^post)) (= lt_20^0 lt_20^post)) (= tmp_10^0 tmp_10^post)) (= tmp___0_11^0 tmp___0_11^post)) (= x_23^0 x_23^post)) (= y_110^0 y_110^post)) (= y_158^0 y_158^post)) (= y_259^0 y_259^post)) (= y_309^0 y_309^post)) (= y_80^0 y_80^post))))
    (cfg_trans2 pc^0 l4 pc^post l5 (and (and (and (and (and (and (and (and (and (and (and (and (and (and (and (and (and (and (and (and (and (and (and (and (and (and (and (and (and (and (and (and (and (<= (+ 1 c_15^0) 0) (= Result_6^0 Result_6^post)) (= ___cil_tmp6_12^0 ___cil_tmp6_12^post)) (= ___patmp1^0 ___patmp1^post)) (= ___patmp2^0 ___patmp2^post)) (= a_128^0 a_128^post)) (= a_243^0 a_243^post)) (= c_15^0 c_15^post)) (= cnt_133^0 cnt_133^post)) (= cnt_139^0 cnt_139^post)) (= cnt_269^0 cnt_269^post)) (= cnt_276^0 cnt_276^post)) (= elem_16^0 elem_16^post)) (= head_9^0 head_9^post)) (= i_8^0 i_8^post)) (= k_296^0 k_296^post)) (= len_246^0 len_246^post)) (= len_48^0 len_48^post)) (= length_7^0 length_7^post)) (= lt_18^0 lt_18^post)) (= lt_19^0 lt_19^post)) (= lt_20^0 lt_20^post)) (= lt_21^0 lt_21^post)) (= prev_17^0 prev_17^post)) (= tmp_10^0 tmp_10^post)) (= tmp___0_11^0 tmp___0_11^post)) (= x_13^0 x_13^post)) (= x_23^0 x_23^post)) (= y_110^0 y_110^post)) (= y_14^0 y_14^post)) (= y_158^0 y_158^post)) (= y_259^0 y_259^post)) (= y_309^0 y_309^post)) (= y_80^0 y_80^post)))
    (cfg_trans2 pc^0 l4 pc^post l5 (and (and (and (and (and (and (and (and (and (and (and (and (and (and (and (and (and (and (and (and (and (and (and (and (and (and (and (and (and (and (and (and (and (<= 1 (+ 0 c_15^0)) (= Result_6^0 Result_6^post)) (= ___cil_tmp6_12^0 ___cil_tmp6_12^post)) (= ___patmp1^0 ___patmp1^post)) (= ___patmp2^0 ___patmp2^post)) (= a_128^0 a_128^post)) (= a_243^0 a_243^post)) (= c_15^0 c_15^post)) (= cnt_133^0 cnt_133^post)) (= cnt_139^0 cnt_139^post)) (= cnt_269^0 cnt_269^post)) (= cnt_276^0 cnt_276^post)) (= elem_16^0 elem_16^post)) (= head_9^0 head_9^post)) (= i_8^0 i_8^post)) (= k_296^0 k_296^post)) (= len_246^0 len_246^post)) (= len_48^0 len_48^post)) (= length_7^0 length_7^post)) (= lt_18^0 lt_18^post)) (= lt_19^0 lt_19^post)) (= lt_20^0 lt_20^post)) (= lt_21^0 lt_21^post)) (= prev_17^0 prev_17^post)) (= tmp_10^0 tmp_10^post)) (= tmp___0_11^0 tmp___0_11^post)) (= x_13^0 x_13^post)) (= x_23^0 x_23^post)) (= y_110^0 y_110^post)) (= y_14^0 y_14^post)) (= y_158^0 y_158^post)) (= y_259^0 y_259^post)) (= y_309^0 y_309^post)) (= y_80^0 y_80^post)))
    (cfg_trans2 pc^0 l5 pc^post l6 (exists ( (lt_21^1 Int) ) (and (and (and (and (and (and (and (and (and (and (and (and (and (and (and (and (and (and (and (and (and (and (and (and (and (and (and (and (and (and (and (and (and (and (= y_14^post (+ 0 c_15^0)) (= lt_21^1 (+ 0 y_110^0))) (= c_15^post (+ 0 lt_21^1))) (= lt_21^post lt_21^post)) (= elem_16^post (+ 0 x_13^0))) (= prev_17^post 0)) (<= 0 (+ 0 a_128^0))) (= cnt_133^post cnt_133^post)) (= cnt_139^post cnt_139^post)) (= Result_6^0 Result_6^post)) (= ___cil_tmp6_12^0 ___cil_tmp6_12^post)) (= ___patmp1^0 ___patmp1^post)) (= ___patmp2^0 ___patmp2^post)) (= a_128^0 a_128^post)) (= a_243^0 a_243^post)) (= cnt_269^0 cnt_269^post)) (= cnt_276^0 cnt_276^post)) (= head_9^0 head_9^post)) (= i_8^0 i_8^post)) (= k_296^0 k_296^post)) (= len_246^0 len_246^post)) (= len_48^0 len_48^post)) (= length_7^0 length_7^post)) (= lt_18^0 lt_18^post)) (= lt_19^0 lt_19^post)) (= lt_20^0 lt_20^post)) (= tmp_10^0 tmp_10^post)) (= tmp___0_11^0 tmp___0_11^post)) (= x_13^0 x_13^post)) (= x_23^0 x_23^post)) (= y_110^0 y_110^post)) (= y_158^0 y_158^post)) (= y_259^0 y_259^post)) (= y_309^0 y_309^post)) (= y_80^0 y_80^post))))
    (cfg_trans2 pc^0 l6 pc^post l7 (and (and (and (and (and (and (and (and (and (and (and (and (and (and (and (and (and (and (and (and (and (and (and (and (and (and (and (and (and (and (and (and (and (<= (+ 1 elem_16^0) 0) (= Result_6^0 Result_6^post)) (= ___cil_tmp6_12^0 ___cil_tmp6_12^post)) (= ___patmp1^0 ___patmp1^post)) (= ___patmp2^0 ___patmp2^post)) (= a_128^0 a_128^post)) (= a_243^0 a_243^post)) (= c_15^0 c_15^post)) (= cnt_133^0 cnt_133^post)) (= cnt_139^0 cnt_139^post)) (= cnt_269^0 cnt_269^post)) (= cnt_276^0 cnt_276^post)) (= elem_16^0 elem_16^post)) (= head_9^0 head_9^post)) (= i_8^0 i_8^post)) (= k_296^0 k_296^post)) (= len_246^0 len_246^post)) (= len_48^0 len_48^post)) (= length_7^0 length_7^post)) (= lt_18^0 lt_18^post)) (= lt_19^0 lt_19^post)) (= lt_20^0 lt_20^post)) (= lt_21^0 lt_21^post)) (= prev_17^0 prev_17^post)) (= tmp_10^0 tmp_10^post)) (= tmp___0_11^0 tmp___0_11^post)) (= x_13^0 x_13^post)) (= x_23^0 x_23^post)) (= y_110^0 y_110^post)) (= y_14^0 y_14^post)) (= y_158^0 y_158^post)) (= y_259^0 y_259^post)) (= y_309^0 y_309^post)) (= y_80^0 y_80^post)))
    (cfg_trans2 pc^0 l6 pc^post l7 (and (and (and (and (and (and (and (and (and (and (and (and (and (and (and (and (and (and (and (and (and (and (and (and (and (and (and (and (and (and (and (and (and (<= 1 (+ 0 elem_16^0)) (= Result_6^0 Result_6^post)) (= ___cil_tmp6_12^0 ___cil_tmp6_12^post)) (= ___patmp1^0 ___patmp1^post)) (= ___patmp2^0 ___patmp2^post)) (= a_128^0 a_128^post)) (= a_243^0 a_243^post)) (= c_15^0 c_15^post)) (= cnt_133^0 cnt_133^post)) (= cnt_139^0 cnt_139^post)) (= cnt_269^0 cnt_269^post)) (= cnt_276^0 cnt_276^post)) (= elem_16^0 elem_16^post)) (= head_9^0 head_9^post)) (= i_8^0 i_8^post)) (= k_296^0 k_296^post)) (= len_246^0 len_246^post)) (= len_48^0 len_48^post)) (= length_7^0 length_7^post)) (= lt_18^0 lt_18^post)) (= lt_19^0 lt_19^post)) (= lt_20^0 lt_20^post)) (= lt_21^0 lt_21^post)) (= prev_17^0 prev_17^post)) (= tmp_10^0 tmp_10^post)) (= tmp___0_11^0 tmp___0_11^post)) (= x_13^0 x_13^post)) (= x_23^0 x_23^post)) (= y_110^0 y_110^post)) (= y_14^0 y_14^post)) (= y_158^0 y_158^post)) (= y_259^0 y_259^post)) (= y_309^0 y_309^post)) (= y_80^0 y_80^post)))
    (cfg_trans2 pc^0 l7 pc^post l8 (exists ( (lt_19^1 Int) (lt_20^1 Int) ) (and (and (and (and (and (and (and (and (and (and (and (and (and (and (and (and (and (and (and (and (and (and (and (and (and (and (and (and (and (and (and (and (and (and (and (and (and (and (= lt_19^1 (+ 0 cnt_133^0)) (= lt_20^1 (+ 0 cnt_139^0))) (<= 0 (+ (+ 0 lt_19^1) (* -1 lt_20^1)))) (= lt_19^post lt_19^post)) (= lt_20^post lt_20^post)) (<= (+ 0 prev_17^0) 0)) (<= 0 (+ 0 prev_17^0))) (= x_13^post (+ 0 y_14^0))) (<= 0 (+ 0 a_128^0))) (= ___patmp1^post 1)) (= ___patmp2^post (+ -1 a_128^0))) (= len_246^post (+ 0 ___patmp1^post))) (= a_243^post (+ 0 ___patmp2^post))) (= Result_6^0 Result_6^post)) (= ___cil_tmp6_12^0 ___cil_tmp6_12^post)) (= a_128^0 a_128^post)) (= c_15^0 c_15^post)) (= cnt_133^0 cnt_133^post)) (= cnt_139^0 cnt_139^post)) (= cnt_269^0 cnt_269^post)) (= cnt_276^0 cnt_276^post)) (= elem_16^0 elem_16^post)) (= head_9^0 head_9^post)) (= i_8^0 i_8^post)) (= k_296^0 k_296^post)) (= len_48^0 len_48^post)) (= length_7^0 length_7^post)) (= lt_18^0 lt_18^post)) (= lt_21^0 lt_21^post)) (= prev_17^0 prev_17^post)) (= tmp_10^0 tmp_10^post)) (= tmp___0_11^0 tmp___0_11^post)) (= x_23^0 x_23^post)) (= y_110^0 y_110^post)) (= y_14^0 y_14^post)) (= y_158^0 y_158^post)) (= y_259^0 y_259^post)) (= y_309^0 y_309^post)) (= y_80^0 y_80^post))))
    (cfg_trans2 pc^0 l8 pc^post l9 (and (and (and (and (and (and (and (and (and (and (and (and (and (and (and (and (and (and (and (and (and (and (and (and (and (and (and (and (and (and (and (and (and (<= (+ 1 c_15^0) 0) (= Result_6^0 Result_6^post)) (= ___cil_tmp6_12^0 ___cil_tmp6_12^post)) (= ___patmp1^0 ___patmp1^post)) (= ___patmp2^0 ___patmp2^post)) (= a_128^0 a_128^post)) (= a_243^0 a_243^post)) (= c_15^0 c_15^post)) (= cnt_133^0 cnt_133^post)) (= cnt_139^0 cnt_139^post)) (= cnt_269^0 cnt_269^post)) (= cnt_276^0 cnt_276^post)) (= elem_16^0 elem_16^post)) (= head_9^0 head_9^post)) (= i_8^0 i_8^post)) (= k_296^0 k_296^post)) (= len_246^0 len_246^post)) (= len_48^0 len_48^post)) (= length_7^0 length_7^post)) (= lt_18^0 lt_18^post)) (= lt_19^0 lt_19^post)) (= lt_20^0 lt_20^post)) (= lt_21^0 lt_21^post)) (= prev_17^0 prev_17^post)) (= tmp_10^0 tmp_10^post)) (= tmp___0_11^0 tmp___0_11^post)) (= x_13^0 x_13^post)) (= x_23^0 x_23^post)) (= y_110^0 y_110^post)) (= y_14^0 y_14^post)) (= y_158^0 y_158^post)) (= y_259^0 y_259^post)) (= y_309^0 y_309^post)) (= y_80^0 y_80^post)))
    (cfg_trans2 pc^0 l8 pc^post l9 (and (and (and (and (and (and (and (and (and (and (and (and (and (and (and (and (and (and (and (and (and (and (and (and (and (and (and (and (and (and (and (and (and (<= 1 (+ 0 c_15^0)) (= Result_6^0 Result_6^post)) (= ___cil_tmp6_12^0 ___cil_tmp6_12^post)) (= ___patmp1^0 ___patmp1^post)) (= ___patmp2^0 ___patmp2^post)) (= a_128^0 a_128^post)) (= a_243^0 a_243^post)) (= c_15^0 c_15^post)) (= cnt_133^0 cnt_133^post)) (= cnt_139^0 cnt_139^post)) (= cnt_269^0 cnt_269^post)) (= cnt_276^0 cnt_276^post)) (= elem_16^0 elem_16^post)) (= head_9^0 head_9^post)) (= i_8^0 i_8^post)) (= k_296^0 k_296^post)) (= len_246^0 len_246^post)) (= len_48^0 len_48^post)) (= length_7^0 length_7^post)) (= lt_18^0 lt_18^post)) (= lt_19^0 lt_19^post)) (= lt_20^0 lt_20^post)) (= lt_21^0 lt_21^post)) (= prev_17^0 prev_17^post)) (= tmp_10^0 tmp_10^post)) (= tmp___0_11^0 tmp___0_11^post)) (= x_13^0 x_13^post)) (= x_23^0 x_23^post)) (= y_110^0 y_110^post)) (= y_14^0 y_14^post)) (= y_158^0 y_158^post)) (= y_259^0 y_259^post)) (= y_309^0 y_309^post)) (= y_80^0 y_80^post)))
    (cfg_trans2 pc^0 l9 pc^post l1 (exists ( (lt_21^1 Int) ) (and (and (and (and (and (and (and (and (and (and (and (and (and (and (and (and (and (and (and (and (and (and (and (and (and (and (and (and (and (and (and (and (and (= y_14^post (+ 0 c_15^0)) (= lt_21^1 (+ 0 y_158^0))) (= c_15^post (+ 0 lt_21^1))) (= lt_21^post lt_21^post)) (= elem_16^post (+ 0 x_13^0))) (= prev_17^post 0)) (= Result_6^0 Result_6^post)) (= ___cil_tmp6_12^0 ___cil_tmp6_12^post)) (= ___patmp1^0 ___patmp1^post)) (= ___patmp2^0 ___patmp2^post)) (= a_128^0 a_128^post)) (= a_243^0 a_243^post)) (= cnt_133^0 cnt_133^post)) (= cnt_139^0 cnt_139^post)) (= cnt_269^0 cnt_269^post)) (= cnt_276^0 cnt_276^post)) (= head_9^0 head_9^post)) (= i_8^0 i_8^post)) (= k_296^0 k_296^post)) (= len_246^0 len_246^post)) (= len_48^0 len_48^post)) (= length_7^0 length_7^post)) (= lt_18^0 lt_18^post)) (= lt_19^0 lt_19^post)) (= lt_20^0 lt_20^post)) (= tmp_10^0 tmp_10^post)) (= tmp___0_11^0 tmp___0_11^post)) (= x_13^0 x_13^post)) (= x_23^0 x_23^post)) (= y_110^0 y_110^post)) (= y_158^0 y_158^post)) (= y_259^0 y_259^post)) (= y_309^0 y_309^post)) (= y_80^0 y_80^post))))
    (cfg_trans2 pc^0 l0 pc^post l10 (and (and (and (and (and (and (and (and (and (and (and (and (and (and (and (and (and (and (and (and (and (and (and (and (and (and (and (and (and (and (and (and (and (and (<= 0 (+ 0 len_48^0)) (= len_48^post (+ 1 len_48^0))) (<= 0 (+ (+ -1 (* -1 i_8^0)) length_7^0))) (= tmp___0_11^post tmp___0_11^post)) (= tmp_10^post (+ 0 tmp___0_11^post))) (= head_9^post (+ 0 tmp_10^post))) (= i_8^post (+ 1 i_8^0))) (= Result_6^0 Result_6^post)) (= ___cil_tmp6_12^0 ___cil_tmp6_12^post)) (= ___patmp1^0 ___patmp1^post)) (= ___patmp2^0 ___patmp2^post)) (= a_128^0 a_128^post)) (= a_243^0 a_243^post)) (= c_15^0 c_15^post)) (= cnt_133^0 cnt_133^post)) (= cnt_139^0 cnt_139^post)) (= cnt_269^0 cnt_269^post)) (= cnt_276^0 cnt_276^post)) (= elem_16^0 elem_16^post)) (= k_296^0 k_296^post)) (= len_246^0 len_246^post)) (= length_7^0 length_7^post)) (= lt_18^0 lt_18^post)) (= lt_19^0 lt_19^post)) (= lt_20^0 lt_20^post)) (= lt_21^0 lt_21^post)) (= prev_17^0 prev_17^post)) (= x_13^0 x_13^post)) (= x_23^0 x_23^post)) (= y_110^0 y_110^post)) (= y_14^0 y_14^post)) (= y_158^0 y_158^post)) (= y_259^0 y_259^post)) (= y_309^0 y_309^post)) (= y_80^0 y_80^post)))
    (cfg_trans2 pc^0 l10 pc^post l0 (and (and (and (and (and (and (and (and (and (and (and (and (and (and (and (and (and (and (and (and (and (and (and (and (and (and (and (and (and (and (and (and (= Result_6^0 Result_6^post) (= ___cil_tmp6_12^0 ___cil_tmp6_12^post)) (= ___patmp1^0 ___patmp1^post)) (= ___patmp2^0 ___patmp2^post)) (= a_128^0 a_128^post)) (= a_243^0 a_243^post)) (= c_15^0 c_15^post)) (= cnt_133^0 cnt_133^post)) (= cnt_139^0 cnt_139^post)) (= cnt_269^0 cnt_269^post)) (= cnt_276^0 cnt_276^post)) (= elem_16^0 elem_16^post)) (= head_9^0 head_9^post)) (= i_8^0 i_8^post)) (= k_296^0 k_296^post)) (= len_246^0 len_246^post)) (= len_48^0 len_48^post)) (= length_7^0 length_7^post)) (= lt_18^0 lt_18^post)) (= lt_19^0 lt_19^post)) (= lt_20^0 lt_20^post)) (= lt_21^0 lt_21^post)) (= prev_17^0 prev_17^post)) (= tmp_10^0 tmp_10^post)) (= tmp___0_11^0 tmp___0_11^post)) (= x_13^0 x_13^post)) (= x_23^0 x_23^post)) (= y_110^0 y_110^post)) (= y_14^0 y_14^post)) (= y_158^0 y_158^post)) (= y_259^0 y_259^post)) (= y_309^0 y_309^post)) (= y_80^0 y_80^post)))
    (cfg_trans2 pc^0 l11 pc^post l0 (exists ( (head_9^1 Int) (i_8^1 Int) (x_13^1 Int) ) (and (and (and (and (and (and (and (and (and (and (and (and (and (and (and (and (and (and (and (and (and (and (and (and (and (and (and (and (and (and (and (and (and (and (and (and (= x_13^1 0) (= length_7^post 17)) (= x_13^post (+ 0 x_23^0))) (= head_9^1 0)) (= i_8^1 0)) (= len_48^post (+ 0 i_8^1))) (<= 0 (+ (+ -1 (* -1 i_8^1)) length_7^post))) (= tmp___0_11^post tmp___0_11^post)) (= tmp_10^post (+ 0 tmp___0_11^post))) (= head_9^post (+ 0 tmp_10^post))) (= i_8^post (+ 1 i_8^1))) (= Result_6^0 Result_6^post)) (= ___cil_tmp6_12^0 ___cil_tmp6_12^post)) (= ___patmp1^0 ___patmp1^post)) (= ___patmp2^0 ___patmp2^post)) (= a_128^0 a_128^post)) (= a_243^0 a_243^post)) (= c_15^0 c_15^post)) (= cnt_133^0 cnt_133^post)) (= cnt_139^0 cnt_139^post)) (= cnt_269^0 cnt_269^post)) (= cnt_276^0 cnt_276^post)) (= elem_16^0 elem_16^post)) (= k_296^0 k_296^post)) (= len_246^0 len_246^post)) (= lt_18^0 lt_18^post)) (= lt_19^0 lt_19^post)) (= lt_20^0 lt_20^post)) (= lt_21^0 lt_21^post)) (= prev_17^0 prev_17^post)) (= x_23^0 x_23^post)) (= y_110^0 y_110^post)) (= y_14^0 y_14^post)) (= y_158^0 y_158^post)) (= y_259^0 y_259^post)) (= y_309^0 y_309^post)) (= y_80^0 y_80^post))))
    (cfg_trans2 pc^0 l1 pc^post l13 (and (and (and (and (and (and (and (and (and (and (and (and (and (and (and (and (and (and (and (and (and (and (and (and (and (and (and (and (and (and (and (and (and (and (<= 0 (+ 0 a_243^0)) (<= 0 (+ 0 len_246^0))) (= cnt_276^post cnt_276^post)) (= k_296^post (+ 0 len_246^0))) (= Result_6^0 Result_6^post)) (= ___cil_tmp6_12^0 ___cil_tmp6_12^post)) (= ___patmp1^0 ___patmp1^post)) (= ___patmp2^0 ___patmp2^post)) (= a_128^0 a_128^post)) (= a_243^0 a_243^post)) (= c_15^0 c_15^post)) (= cnt_133^0 cnt_133^post)) (= cnt_139^0 cnt_139^post)) (= cnt_269^0 cnt_269^post)) (= elem_16^0 elem_16^post)) (= head_9^0 head_9^post)) (= i_8^0 i_8^post)) (= len_246^0 len_246^post)) (= len_48^0 len_48^post)) (= length_7^0 length_7^post)) (= lt_18^0 lt_18^post)) (= lt_19^0 lt_19^post)) (= lt_20^0 lt_20^post)) (= lt_21^0 lt_21^post)) (= prev_17^0 prev_17^post)) (= tmp_10^0 tmp_10^post)) (= tmp___0_11^0 tmp___0_11^post)) (= x_13^0 x_13^post)) (= x_23^0 x_23^post)) (= y_110^0 y_110^post)) (= y_14^0 y_14^post)) (= y_158^0 y_158^post)) (= y_259^0 y_259^post)) (= y_309^0 y_309^post)) (= y_80^0 y_80^post)))
    (cfg_trans2 pc^0 l13 pc^post l14 (and (and (and (and (and (and (and (and (and (and (and (and (and (and (and (and (and (and (and (and (and (and (and (and (and (and (and (and (and (and (and (and (and (<= (+ 1 elem_16^0) 0) (= Result_6^0 Result_6^post)) (= ___cil_tmp6_12^0 ___cil_tmp6_12^post)) (= ___patmp1^0 ___patmp1^post)) (= ___patmp2^0 ___patmp2^post)) (= a_128^0 a_128^post)) (= a_243^0 a_243^post)) (= c_15^0 c_15^post)) (= cnt_133^0 cnt_133^post)) (= cnt_139^0 cnt_139^post)) (= cnt_269^0 cnt_269^post)) (= cnt_276^0 cnt_276^post)) (= elem_16^0 elem_16^post)) (= head_9^0 head_9^post)) (= i_8^0 i_8^post)) (= k_296^0 k_296^post)) (= len_246^0 len_246^post)) (= len_48^0 len_48^post)) (= length_7^0 length_7^post)) (= lt_18^0 lt_18^post)) (= lt_19^0 lt_19^post)) (= lt_20^0 lt_20^post)) (= lt_21^0 lt_21^post)) (= prev_17^0 prev_17^post)) (= tmp_10^0 tmp_10^post)) (= tmp___0_11^0 tmp___0_11^post)) (= x_13^0 x_13^post)) (= x_23^0 x_23^post)) (= y_110^0 y_110^post)) (= y_14^0 y_14^post)) (= y_158^0 y_158^post)) (= y_259^0 y_259^post)) (= y_309^0 y_309^post)) (= y_80^0 y_80^post)))
    (cfg_trans2 pc^0 l13 pc^post l14 (and (and (and (and (and (and (and (and (and (and (and (and (and (and (and (and (and (and (and (and (and (and (and (and (and (and (and (and (and (and (and (and (and (<= 1 (+ 0 elem_16^0)) (= Result_6^0 Result_6^post)) (= ___cil_tmp6_12^0 ___cil_tmp6_12^post)) (= ___patmp1^0 ___patmp1^post)) (= ___patmp2^0 ___patmp2^post)) (= a_128^0 a_128^post)) (= a_243^0 a_243^post)) (= c_15^0 c_15^post)) (= cnt_133^0 cnt_133^post)) (= cnt_139^0 cnt_139^post)) (= cnt_269^0 cnt_269^post)) (= cnt_276^0 cnt_276^post)) (= elem_16^0 elem_16^post)) (= head_9^0 head_9^post)) (= i_8^0 i_8^post)) (= k_296^0 k_296^post)) (= len_246^0 len_246^post)) (= len_48^0 len_48^post)) (= length_7^0 length_7^post)) (= lt_18^0 lt_18^post)) (= lt_19^0 lt_19^post)) (= lt_20^0 lt_20^post)) (= lt_21^0 lt_21^post)) (= prev_17^0 prev_17^post)) (= tmp_10^0 tmp_10^post)) (= tmp___0_11^0 tmp___0_11^post)) (= x_13^0 x_13^post)) (= x_23^0 x_23^post)) (= y_110^0 y_110^post)) (= y_14^0 y_14^post)) (= y_158^0 y_158^post)) (= y_259^0 y_259^post)) (= y_309^0 y_309^post)) (= y_80^0 y_80^post)))
    (cfg_trans2 pc^0 l14 pc^post l12 (exists ( (lt_19^1 Int) (lt_20^1 Int) ) (and (and (and (and (and (and (and (and (and (and (and (and (and (and (and (and (and (and (and (and (and (and (and (and (and (and (and (and (and (and (and (and (and (and (and (and (and (= lt_19^1 (+ 0 cnt_269^0)) (= lt_20^1 (+ 0 cnt_276^0))) (<= 0 (+ (+ 0 lt_19^1) (* -1 lt_20^1)))) (= lt_19^post lt_19^post)) (= lt_20^post lt_20^post)) (<= (+ 0 prev_17^0) 0)) (<= 0 (+ 0 prev_17^0))) (= x_13^post (+ 0 y_14^0))) (= Result_6^0 Result_6^post)) (= ___cil_tmp6_12^0 ___cil_tmp6_12^post)) (= ___patmp1^0 ___patmp1^post)) (= ___patmp2^0 ___patmp2^post)) (= a_128^0 a_128^post)) (= a_243^0 a_243^post)) (= c_15^0 c_15^post)) (= cnt_133^0 cnt_133^post)) (= cnt_139^0 cnt_139^post)) (= cnt_269^0 cnt_269^post)) (= cnt_276^0 cnt_276^post)) (= elem_16^0 elem_16^post)) (= head_9^0 head_9^post)) (= i_8^0 i_8^post)) (= k_296^0 k_296^post)) (= len_246^0 len_246^post)) (= len_48^0 len_48^post)) (= length_7^0 length_7^post)) (= lt_18^0 lt_18^post)) (= lt_21^0 lt_21^post)) (= prev_17^0 prev_17^post)) (= tmp_10^0 tmp_10^post)) (= tmp___0_11^0 tmp___0_11^post)) (= x_23^0 x_23^post)) (= y_110^0 y_110^post)) (= y_14^0 y_14^post)) (= y_158^0 y_158^post)) (= y_259^0 y_259^post)) (= y_309^0 y_309^post)) (= y_80^0 y_80^post))))
    (cfg_trans2 pc^0 l1 pc^post l16 (and (and (and (and (and (and (and (and (and (and (and (and (and (and (and (and (and (and (and (and (and (and (and (and (and (and (and (and (and (and (and (and (and (and (<= 0 (+ 0 a_243^0)) (<= 0 (+ 0 len_246^0))) (= cnt_269^post cnt_269^post)) (= cnt_276^post cnt_276^post)) (= Result_6^0 Result_6^post)) (= ___cil_tmp6_12^0 ___cil_tmp6_12^post)) (= ___patmp1^0 ___patmp1^post)) (= ___patmp2^0 ___patmp2^post)) (= a_128^0 a_128^post)) (= a_243^0 a_243^post)) (= c_15^0 c_15^post)) (= cnt_133^0 cnt_133^post)) (= cnt_139^0 cnt_139^post)) (= elem_16^0 elem_16^post)) (= head_9^0 head_9^post)) (= i_8^0 i_8^post)) (= k_296^0 k_296^post)) (= len_246^0 len_246^post)) (= len_48^0 len_48^post)) (= length_7^0 length_7^post)) (= lt_18^0 lt_18^post)) (= lt_19^0 lt_19^post)) (= lt_20^0 lt_20^post)) (= lt_21^0 lt_21^post)) (= prev_17^0 prev_17^post)) (= tmp_10^0 tmp_10^post)) (= tmp___0_11^0 tmp___0_11^post)) (= x_13^0 x_13^post)) (= x_23^0 x_23^post)) (= y_110^0 y_110^post)) (= y_14^0 y_14^post)) (= y_158^0 y_158^post)) (= y_259^0 y_259^post)) (= y_309^0 y_309^post)) (= y_80^0 y_80^post)))
    (cfg_trans2 pc^0 l16 pc^post l17 (and (and (and (and (and (and (and (and (and (and (and (and (and (and (and (and (and (and (and (and (and (and (and (and (and (and (and (and (and (and (and (and (and (<= (+ 1 elem_16^0) 0) (= Result_6^0 Result_6^post)) (= ___cil_tmp6_12^0 ___cil_tmp6_12^post)) (= ___patmp1^0 ___patmp1^post)) (= ___patmp2^0 ___patmp2^post)) (= a_128^0 a_128^post)) (= a_243^0 a_243^post)) (= c_15^0 c_15^post)) (= cnt_133^0 cnt_133^post)) (= cnt_139^0 cnt_139^post)) (= cnt_269^0 cnt_269^post)) (= cnt_276^0 cnt_276^post)) (= elem_16^0 elem_16^post)) (= head_9^0 head_9^post)) (= i_8^0 i_8^post)) (= k_296^0 k_296^post)) (= len_246^0 len_246^post)) (= len_48^0 len_48^post)) (= length_7^0 length_7^post)) (= lt_18^0 lt_18^post)) (= lt_19^0 lt_19^post)) (= lt_20^0 lt_20^post)) (= lt_21^0 lt_21^post)) (= prev_17^0 prev_17^post)) (= tmp_10^0 tmp_10^post)) (= tmp___0_11^0 tmp___0_11^post)) (= x_13^0 x_13^post)) (= x_23^0 x_23^post)) (= y_110^0 y_110^post)) (= y_14^0 y_14^post)) (= y_158^0 y_158^post)) (= y_259^0 y_259^post)) (= y_309^0 y_309^post)) (= y_80^0 y_80^post)))
    (cfg_trans2 pc^0 l16 pc^post l17 (and (and (and (and (and (and (and (and (and (and (and (and (and (and (and (and (and (and (and (and (and (and (and (and (and (and (and (and (and (and (and (and (and (<= 1 (+ 0 elem_16^0)) (= Result_6^0 Result_6^post)) (= ___cil_tmp6_12^0 ___cil_tmp6_12^post)) (= ___patmp1^0 ___patmp1^post)) (= ___patmp2^0 ___patmp2^post)) (= a_128^0 a_128^post)) (= a_243^0 a_243^post)) (= c_15^0 c_15^post)) (= cnt_133^0 cnt_133^post)) (= cnt_139^0 cnt_139^post)) (= cnt_269^0 cnt_269^post)) (= cnt_276^0 cnt_276^post)) (= elem_16^0 elem_16^post)) (= head_9^0 head_9^post)) (= i_8^0 i_8^post)) (= k_296^0 k_296^post)) (= len_246^0 len_246^post)) (= len_48^0 len_48^post)) (= length_7^0 length_7^post)) (= lt_18^0 lt_18^post)) (= lt_19^0 lt_19^post)) (= lt_20^0 lt_20^post)) (= lt_21^0 lt_21^post)) (= prev_17^0 prev_17^post)) (= tmp_10^0 tmp_10^post)) (= tmp___0_11^0 tmp___0_11^post)) (= x_13^0 x_13^post)) (= x_23^0 x_23^post)) (= y_110^0 y_110^post)) (= y_14^0 y_14^post)) (= y_158^0 y_158^post)) (= y_259^0 y_259^post)) (= y_309^0 y_309^post)) (= y_80^0 y_80^post)))
    (cfg_trans2 pc^0 l17 pc^post l15 (exists ( (lt_18^1 Int) (lt_19^1 Int) (lt_20^1 Int) ) (and (and (and (and (and (and (and (and (and (and (and (and (and (and (and (and (and (and (and (and (and (and (and (and (and (and (and (and (and (and (and (and (and (and (and (and (and (and (= lt_19^1 (+ 0 cnt_269^0)) (= lt_20^1 (+ 0 cnt_276^0))) (<= (+ (+ 1 lt_19^1) (* -1 lt_20^1)) 0)) (= lt_19^post lt_19^post)) (= lt_20^post lt_20^post)) (= prev_17^post (+ 0 elem_16^0))) (= lt_18^1 (+ 0 y_259^0))) (= elem_16^post (+ 0 lt_18^1))) (= lt_18^post lt_18^post)) (<= 0 (+ 0 a_243^0))) (<= 0 (+ -1 len_246^0))) (= Result_6^0 Result_6^post)) (= ___cil_tmp6_12^0 ___cil_tmp6_12^post)) (= ___patmp1^0 ___patmp1^post)) (= ___patmp2^0 ___patmp2^post)) (= a_128^0 a_128^post)) (= a_243^0 a_243^post)) (= c_15^0 c_15^post)) (= cnt_133^0 cnt_133^post)) (= cnt_139^0 cnt_139^post)) (= cnt_269^0 cnt_269^post)) (= cnt_276^0 cnt_276^post)) (= head_9^0 head_9^post)) (= i_8^0 i_8^post)) (= k_296^0 k_296^post)) (= len_246^0 len_246^post)) (= len_48^0 len_48^post)) (= length_7^0 length_7^post)) (= lt_21^0 lt_21^post)) (= tmp_10^0 tmp_10^post)) (= tmp___0_11^0 tmp___0_11^post)) (= x_13^0 x_13^post)) (= x_23^0 x_23^post)) (= y_110^0 y_110^post)) (= y_14^0 y_14^post)) (= y_158^0 y_158^post)) (= y_259^0 y_259^post)) (= y_309^0 y_309^post)) (= y_80^0 y_80^post))))
    (cfg_trans2 pc^0 l12 pc^post l18 (and (and (and (and (and (and (and (and (and (and (and (and (and (and (and (and (and (and (and (and (and (and (and (and (and (and (and (and (and (and (and (and (and (and (and (and (<= 0 (+ 0 a_243^0)) (<= 0 (+ 0 k_296^0))) (<= (+ 0 c_15^0) 0)) (<= 0 (+ 0 c_15^0))) (= Result_6^post Result_6^post)) (= ___cil_tmp6_12^0 ___cil_tmp6_12^post)) (= ___patmp1^0 ___patmp1^post)) (= ___patmp2^0 ___patmp2^post)) (= a_128^0 a_128^post)) (= a_243^0 a_243^post)) (= c_15^0 c_15^post)) (= cnt_133^0 cnt_133^post)) (= cnt_139^0 cnt_139^post)) (= cnt_269^0 cnt_269^post)) (= cnt_276^0 cnt_276^post)) (= elem_16^0 elem_16^post)) (= head_9^0 head_9^post)) (= i_8^0 i_8^post)) (= k_296^0 k_296^post)) (= len_246^0 len_246^post)) (= len_48^0 len_48^post)) (= length_7^0 length_7^post)) (= lt_18^0 lt_18^post)) (= lt_19^0 lt_19^post)) (= lt_20^0 lt_20^post)) (= lt_21^0 lt_21^post)) (= prev_17^0 prev_17^post)) (= tmp_10^0 tmp_10^post)) (= tmp___0_11^0 tmp___0_11^post)) (= x_13^0 x_13^post)) (= x_23^0 x_23^post)) (= y_110^0 y_110^post)) (= y_14^0 y_14^post)) (= y_158^0 y_158^post)) (= y_259^0 y_259^post)) (= y_309^0 y_309^post)) (= y_80^0 y_80^post)))
    (cfg_trans2 pc^0 l12 pc^post l19 (and (and (and (and (and (and (and (and (and (and (and (and (and (and (and (and (and (and (and (and (and (and (and (and (and (and (and (and (and (and (and (and (and (and (<= 0 (+ 0 a_243^0)) (<= 0 (+ 0 k_296^0))) (= ___patmp1^post (+ 1 k_296^0))) (= ___patmp2^post (+ -1 a_243^0))) (= len_246^post (+ 0 ___patmp1^post))) (= a_243^post (+ 0 ___patmp2^post))) (= Result_6^0 Result_6^post)) (= ___cil_tmp6_12^0 ___cil_tmp6_12^post)) (= a_128^0 a_128^post)) (= c_15^0 c_15^post)) (= cnt_133^0 cnt_133^post)) (= cnt_139^0 cnt_139^post)) (= cnt_269^0 cnt_269^post)) (= cnt_276^0 cnt_276^post)) (= elem_16^0 elem_16^post)) (= head_9^0 head_9^post)) (= i_8^0 i_8^post)) (= k_296^0 k_296^post)) (= len_48^0 len_48^post)) (= length_7^0 length_7^post)) (= lt_18^0 lt_18^post)) (= lt_19^0 lt_19^post)) (= lt_20^0 lt_20^post)) (= lt_21^0 lt_21^post)) (= prev_17^0 prev_17^post)) (= tmp_10^0 tmp_10^post)) (= tmp___0_11^0 tmp___0_11^post)) (= x_13^0 x_13^post)) (= x_23^0 x_23^post)) (= y_110^0 y_110^post)) (= y_14^0 y_14^post)) (= y_158^0 y_158^post)) (= y_259^0 y_259^post)) (= y_309^0 y_309^post)) (= y_80^0 y_80^post)))
    (cfg_trans2 pc^0 l19 pc^post l20 (and (and (and (and (and (and (and (and (and (and (and (and (and (and (and (and (and (and (and (and (and (and (and (and (and (and (and (and (and (and (and (and (and (<= (+ 1 c_15^0) 0) (= Result_6^0 Result_6^post)) (= ___cil_tmp6_12^0 ___cil_tmp6_12^post)) (= ___patmp1^0 ___patmp1^post)) (= ___patmp2^0 ___patmp2^post)) (= a_128^0 a_128^post)) (= a_243^0 a_243^post)) (= c_15^0 c_15^post)) (= cnt_133^0 cnt_133^post)) (= cnt_139^0 cnt_139^post)) (= cnt_269^0 cnt_269^post)) (= cnt_276^0 cnt_276^post)) (= elem_16^0 elem_16^post)) (= head_9^0 head_9^post)) (= i_8^0 i_8^post)) (= k_296^0 k_296^post)) (= len_246^0 len_246^post)) (= len_48^0 len_48^post)) (= length_7^0 length_7^post)) (= lt_18^0 lt_18^post)) (= lt_19^0 lt_19^post)) (= lt_20^0 lt_20^post)) (= lt_21^0 lt_21^post)) (= prev_17^0 prev_17^post)) (= tmp_10^0 tmp_10^post)) (= tmp___0_11^0 tmp___0_11^post)) (= x_13^0 x_13^post)) (= x_23^0 x_23^post)) (= y_110^0 y_110^post)) (= y_14^0 y_14^post)) (= y_158^0 y_158^post)) (= y_259^0 y_259^post)) (= y_309^0 y_309^post)) (= y_80^0 y_80^post)))
    (cfg_trans2 pc^0 l19 pc^post l20 (and (and (and (and (and (and (and (and (and (and (and (and (and (and (and (and (and (and (and (and (and (and (and (and (and (and (and (and (and (and (and (and (and (<= 1 (+ 0 c_15^0)) (= Result_6^0 Result_6^post)) (= ___cil_tmp6_12^0 ___cil_tmp6_12^post)) (= ___patmp1^0 ___patmp1^post)) (= ___patmp2^0 ___patmp2^post)) (= a_128^0 a_128^post)) (= a_243^0 a_243^post)) (= c_15^0 c_15^post)) (= cnt_133^0 cnt_133^post)) (= cnt_139^0 cnt_139^post)) (= cnt_269^0 cnt_269^post)) (= cnt_276^0 cnt_276^post)) (= elem_16^0 elem_16^post)) (= head_9^0 head_9^post)) (= i_8^0 i_8^post)) (= k_296^0 k_296^post)) (= len_246^0 len_246^post)) (= len_48^0 len_48^post)) (= length_7^0 length_7^post)) (= lt_18^0 lt_18^post)) (= lt_19^0 lt_19^post)) (= lt_20^0 lt_20^post)) (= lt_21^0 lt_21^post)) (= prev_17^0 prev_17^post)) (= tmp_10^0 tmp_10^post)) (= tmp___0_11^0 tmp___0_11^post)) (= x_13^0 x_13^post)) (= x_23^0 x_23^post)) (= y_110^0 y_110^post)) (= y_14^0 y_14^post)) (= y_158^0 y_158^post)) (= y_259^0 y_259^post)) (= y_309^0 y_309^post)) (= y_80^0 y_80^post)))
    (cfg_trans2 pc^0 l20 pc^post l1 (exists ( (lt_21^1 Int) ) (and (and (and (and (and (and (and (and (and (and (and (and (and (and (and (and (and (and (and (and (and (and (and (and (and (and (and (and (and (and (and (and (and (= y_14^post (+ 0 c_15^0)) (= lt_21^1 (+ 0 y_309^0))) (= c_15^post (+ 0 lt_21^1))) (= lt_21^post lt_21^post)) (= elem_16^post (+ 0 x_13^0))) (= prev_17^post 0)) (= Result_6^0 Result_6^post)) (= ___cil_tmp6_12^0 ___cil_tmp6_12^post)) (= ___patmp1^0 ___patmp1^post)) (= ___patmp2^0 ___patmp2^post)) (= a_128^0 a_128^post)) (= a_243^0 a_243^post)) (= cnt_133^0 cnt_133^post)) (= cnt_139^0 cnt_139^post)) (= cnt_269^0 cnt_269^post)) (= cnt_276^0 cnt_276^post)) (= head_9^0 head_9^post)) (= i_8^0 i_8^post)) (= k_296^0 k_296^post)) (= len_246^0 len_246^post)) (= len_48^0 len_48^post)) (= length_7^0 length_7^post)) (= lt_18^0 lt_18^post)) (= lt_19^0 lt_19^post)) (= lt_20^0 lt_20^post)) (= tmp_10^0 tmp_10^post)) (= tmp___0_11^0 tmp___0_11^post)) (= x_13^0 x_13^post)) (= x_23^0 x_23^post)) (= y_110^0 y_110^post)) (= y_158^0 y_158^post)) (= y_259^0 y_259^post)) (= y_309^0 y_309^post)) (= y_80^0 y_80^post))))
    (cfg_trans2 pc^0 l21 pc^post l11 (and (and (and (and (and (and (and (and (and (and (and (and (and (and (and (and (and (and (and (and (and (and (and (and (and (and (and (and (and (and (and (and (= Result_6^0 Result_6^post) (= ___cil_tmp6_12^0 ___cil_tmp6_12^post)) (= ___patmp1^0 ___patmp1^post)) (= ___patmp2^0 ___patmp2^post)) (= a_128^0 a_128^post)) (= a_243^0 a_243^post)) (= c_15^0 c_15^post)) (= cnt_133^0 cnt_133^post)) (= cnt_139^0 cnt_139^post)) (= cnt_269^0 cnt_269^post)) (= cnt_276^0 cnt_276^post)) (= elem_16^0 elem_16^post)) (= head_9^0 head_9^post)) (= i_8^0 i_8^post)) (= k_296^0 k_296^post)) (= len_246^0 len_246^post)) (= len_48^0 len_48^post)) (= length_7^0 length_7^post)) (= lt_18^0 lt_18^post)) (= lt_19^0 lt_19^post)) (= lt_20^0 lt_20^post)) (= lt_21^0 lt_21^post)) (= prev_17^0 prev_17^post)) (= tmp_10^0 tmp_10^post)) (= tmp___0_11^0 tmp___0_11^post)) (= x_13^0 x_13^post)) (= x_23^0 x_23^post)) (= y_110^0 y_110^post)) (= y_14^0 y_14^post)) (= y_158^0 y_158^post)) (= y_259^0 y_259^post)) (= y_309^0 y_309^post)) (= y_80^0 y_80^post)))
  )
)
